* xyz  0 1
  O    0.026670    9.371026    2.499254
  C    0.915964    9.348537    1.685390
  C    0.980951   10.340791    0.553617
  C    2.020454    8.325550    1.744480
  H    0.214299   11.102804    0.679264
  H    1.969384   10.805620    0.499304
  H    0.823045    9.821552   -0.397095
  H    1.816593    7.600415    2.529778
  H    2.973057    8.823939    1.947578
  H    2.128959    7.818379    0.781781
* 

%pal
nprocs 26
end

%basis
GTOName ="system.bas";
GTOAuxName ="system.aux";
end
 

%pointcharges "background.crg"
! DFT PBE0 TightSCF  

