* xyz  0 1
  O    0.026670    9.371025    2.499254
  C    0.915964    9.348536    1.685390
  C    0.980951   10.340790    0.553617
  C    2.020454    8.325549    1.744480
  H    0.214299   11.102803    0.679264
  H    1.969384   10.805619    0.499304
  H    0.823045    9.821551   -0.397095
  H    1.816593    7.600414    2.529778
  H    2.973057    8.823938    1.947578
  H    2.128959    7.818378    0.781781
* 

%pal
nprocs 26
end

%basis
GTOName ="system.bas";
GTOAuxName ="system.aux";
end
 

%pointcharges "background.crg"
! DFT PBE0 TightSCF  

