!PBE0 def2-TZVP OPT

*xyz 0 1
O 0.0000000 0.00000 0.000000
H 0.8164904 0.00000  0.5773590
H -0.8164904 0.00000 0.5773590
*

%pal
 nprocs 26
end


